c n orig vars 152
p cnf 154 1409
1 2 -153 0
3 4 -153 0
5 6 -153 0
7 8 -153 0
9 10 -153 0
11 12 -153 0
13 14 -153 0
15 16 -153 0
17 18 -153 0
19 20 -153 0
-21 -32 -154 0
-22 -43 -154 0
-23 -54 -154 0
-24 -65 -154 0
-25 -76 -154 0
-26 -87 -154 0
-27 -98 -154 0
-28 -109 -154 0
-29 -120 -154 0
-30 -131 -154 0
-31 -142 -154 0
-33 -44 -154 0
-34 -55 -154 0
-35 -66 -154 0
-36 -77 -154 0
-37 -88 -154 0
-38 -99 -154 0
-39 -110 -154 0
-40 -121 -154 0
-41 -132 -154 0
-42 -143 -154 0
-45 -56 -154 0
-46 -67 -154 0
-47 -78 -154 0
-48 -89 -154 0
-49 -100 -154 0
-50 -111 -154 0
-51 -122 -154 0
-52 -133 -154 0
-53 -144 -154 0
-57 -68 -154 0
-58 -79 -154 0
-59 -90 -154 0
-60 -101 -154 0
-61 -112 -154 0
-62 -123 -154 0
-63 -134 -154 0
-64 -145 -154 0
-69 -80 -154 0
-70 -91 -154 0
-71 -102 -154 0
-72 -113 -154 0
-73 -124 -154 0
-74 -135 -154 0
-75 -146 -154 0
-81 -92 -154 0
-82 -103 -154 0
-83 -114 -154 0
-84 -125 -154 0
-85 -136 -154 0
-86 -147 -154 0
-93 -104 -154 0
-94 -115 -154 0
-95 -126 -154 0
-96 -137 -154 0
-97 -148 -154 0
-105 -116 -154 0
-106 -127 -154 0
-107 -138 -154 0
-108 -149 -154 0
-117 -128 -154 0
-118 -139 -154 0
-119 -150 -154 0
-129 -140 -154 0
-130 -151 -154 0
-141 -152 -154 0
-21 -33 22 -154 0
-21 -34 23 -154 0
-21 -35 24 -154 0
-21 -36 25 -154 0
-21 -37 26 -154 0
-21 -38 27 -154 0
-21 -39 28 -154 0
-21 -40 29 -154 0
-21 -41 30 -154 0
-21 -42 31 -154 0
-22 -44 21 -154 0
-22 -45 23 -154 0
-22 -46 24 -154 0
-22 -47 25 -154 0
-22 -48 26 -154 0
-22 -49 27 -154 0
-22 -50 28 -154 0
-22 -51 29 -154 0
-22 -52 30 -154 0
-22 -53 31 -154 0
-23 -55 21 -154 0
-23 -56 22 -154 0
-23 -57 24 -154 0
-23 -58 25 -154 0
-23 -59 26 -154 0
-23 -60 27 -154 0
-23 -61 28 -154 0
-23 -62 29 -154 0
-23 -63 30 -154 0
-23 -64 31 -154 0
-24 -66 21 -154 0
-24 -67 22 -154 0
-24 -68 23 -154 0
-24 -69 25 -154 0
-24 -70 26 -154 0
-24 -71 27 -154 0
-24 -72 28 -154 0
-24 -73 29 -154 0
-24 -74 30 -154 0
-24 -75 31 -154 0
-25 -77 21 -154 0
-25 -78 22 -154 0
-25 -79 23 -154 0
-25 -80 24 -154 0
-25 -81 26 -154 0
-25 -82 27 -154 0
-25 -83 28 -154 0
-25 -84 29 -154 0
-25 -85 30 -154 0
-25 -86 31 -154 0
-26 -88 21 -154 0
-26 -89 22 -154 0
-26 -90 23 -154 0
-26 -91 24 -154 0
-26 -92 25 -154 0
-26 -93 27 -154 0
-26 -94 28 -154 0
-26 -95 29 -154 0
-26 -96 30 -154 0
-26 -97 31 -154 0
-27 -99 21 -154 0
-27 -100 22 -154 0
-27 -101 23 -154 0
-27 -102 24 -154 0
-27 -103 25 -154 0
-27 -104 26 -154 0
-27 -105 28 -154 0
-27 -106 29 -154 0
-27 -107 30 -154 0
-27 -108 31 -154 0
-28 -110 21 -154 0
-28 -111 22 -154 0
-28 -112 23 -154 0
-28 -113 24 -154 0
-28 -114 25 -154 0
-28 -115 26 -154 0
-28 -116 27 -154 0
-28 -117 29 -154 0
-28 -118 30 -154 0
-28 -119 31 -154 0
-29 -121 21 -154 0
-29 -122 22 -154 0
-29 -123 23 -154 0
-29 -124 24 -154 0
-29 -125 25 -154 0
-29 -126 26 -154 0
-29 -127 27 -154 0
-29 -128 28 -154 0
-29 -129 30 -154 0
-29 -130 31 -154 0
-30 -132 21 -154 0
-30 -133 22 -154 0
-30 -134 23 -154 0
-30 -135 24 -154 0
-30 -136 25 -154 0
-30 -137 26 -154 0
-30 -138 27 -154 0
-30 -139 28 -154 0
-30 -140 29 -154 0
-30 -141 31 -154 0
-31 -143 21 -154 0
-31 -144 22 -154 0
-31 -145 23 -154 0
-31 -146 24 -154 0
-31 -147 25 -154 0
-31 -148 26 -154 0
-31 -149 27 -154 0
-31 -150 28 -154 0
-31 -151 29 -154 0
-31 -152 30 -154 0
-32 -22 33 -154 0
-32 -23 34 -154 0
-32 -24 35 -154 0
-32 -25 36 -154 0
-32 -26 37 -154 0
-32 -27 38 -154 0
-32 -28 39 -154 0
-32 -29 40 -154 0
-32 -30 41 -154 0
-32 -31 42 -154 0
-33 -43 32 -154 0
-33 -45 34 -154 0
-33 -46 35 -154 0
-33 -47 36 -154 0
-33 -48 37 -154 0
-33 -49 38 -154 0
-33 -50 39 -154 0
-33 -51 40 -154 0
-33 -52 41 -154 0
-33 -53 42 -154 0
-34 -54 32 -154 0
-34 -56 33 -154 0
-34 -57 35 -154 0
-34 -58 36 -154 0
-34 -59 37 -154 0
-34 -60 38 -154 0
-34 -61 39 -154 0
-34 -62 40 -154 0
-34 -63 41 -154 0
-34 -64 42 -154 0
-35 -65 32 -154 0
-35 -67 33 -154 0
-35 -68 34 -154 0
-35 -69 36 -154 0
-35 -70 37 -154 0
-35 -71 38 -154 0
-35 -72 39 -154 0
-35 -73 40 -154 0
-35 -74 41 -154 0
-35 -75 42 -154 0
-36 -76 32 -154 0
-36 -78 33 -154 0
-36 -79 34 -154 0
-36 -80 35 -154 0
-36 -81 37 -154 0
-36 -82 38 -154 0
-36 -83 39 -154 0
-36 -84 40 -154 0
-36 -85 41 -154 0
-36 -86 42 -154 0
-37 -87 32 -154 0
-37 -89 33 -154 0
-37 -90 34 -154 0
-37 -91 35 -154 0
-37 -92 36 -154 0
-37 -93 38 -154 0
-37 -94 39 -154 0
-37 -95 40 -154 0
-37 -96 41 -154 0
-37 -97 42 -154 0
-38 -98 32 -154 0
-38 -100 33 -154 0
-38 -101 34 -154 0
-38 -102 35 -154 0
-38 -103 36 -154 0
-38 -104 37 -154 0
-38 -105 39 -154 0
-38 -106 40 -154 0
-38 -107 41 -154 0
-38 -108 42 -154 0
-39 -109 32 -154 0
-39 -111 33 -154 0
-39 -112 34 -154 0
-39 -113 35 -154 0
-39 -114 36 -154 0
-39 -115 37 -154 0
-39 -116 38 -154 0
-39 -117 40 -154 0
-39 -118 41 -154 0
-39 -119 42 -154 0
-40 -120 32 -154 0
-40 -122 33 -154 0
-40 -123 34 -154 0
-40 -124 35 -154 0
-40 -125 36 -154 0
-40 -126 37 -154 0
-40 -127 38 -154 0
-40 -128 39 -154 0
-40 -129 41 -154 0
-40 -130 42 -154 0
-41 -131 32 -154 0
-41 -133 33 -154 0
-41 -134 34 -154 0
-41 -135 35 -154 0
-41 -136 36 -154 0
-41 -137 37 -154 0
-41 -138 38 -154 0
-41 -139 39 -154 0
-41 -140 40 -154 0
-41 -141 42 -154 0
-42 -142 32 -154 0
-42 -144 33 -154 0
-42 -145 34 -154 0
-42 -146 35 -154 0
-42 -147 36 -154 0
-42 -148 37 -154 0
-42 -149 38 -154 0
-42 -150 39 -154 0
-42 -151 40 -154 0
-42 -152 41 -154 0
-43 -21 44 -154 0
-43 -23 45 -154 0
-43 -24 46 -154 0
-43 -25 47 -154 0
-43 -26 48 -154 0
-43 -27 49 -154 0
-43 -28 50 -154 0
-43 -29 51 -154 0
-43 -30 52 -154 0
-43 -31 53 -154 0
-44 -32 43 -154 0
-44 -34 45 -154 0
-44 -35 46 -154 0
-44 -36 47 -154 0
-44 -37 48 -154 0
-44 -38 49 -154 0
-44 -39 50 -154 0
-44 -40 51 -154 0
-44 -41 52 -154 0
-44 -42 53 -154 0
-45 -54 43 -154 0
-45 -55 44 -154 0
-45 -57 46 -154 0
-45 -58 47 -154 0
-45 -59 48 -154 0
-45 -60 49 -154 0
-45 -61 50 -154 0
-45 -62 51 -154 0
-45 -63 52 -154 0
-45 -64 53 -154 0
-46 -65 43 -154 0
-46 -66 44 -154 0
-46 -68 45 -154 0
-46 -69 47 -154 0
-46 -70 48 -154 0
-46 -71 49 -154 0
-46 -72 50 -154 0
-46 -73 51 -154 0
-46 -74 52 -154 0
-46 -75 53 -154 0
-47 -76 43 -154 0
-47 -77 44 -154 0
-47 -79 45 -154 0
-47 -80 46 -154 0
-47 -81 48 -154 0
-47 -82 49 -154 0
-47 -83 50 -154 0
-47 -84 51 -154 0
-47 -85 52 -154 0
-47 -86 53 -154 0
-48 -87 43 -154 0
-48 -88 44 -154 0
-48 -90 45 -154 0
-48 -91 46 -154 0
-48 -92 47 -154 0
-48 -93 49 -154 0
-48 -94 50 -154 0
-48 -95 51 -154 0
-48 -96 52 -154 0
-48 -97 53 -154 0
-49 -98 43 -154 0
-49 -99 44 -154 0
-49 -101 45 -154 0
-49 -102 46 -154 0
-49 -103 47 -154 0
-49 -104 48 -154 0
-49 -105 50 -154 0
-49 -106 51 -154 0
-49 -107 52 -154 0
-49 -108 53 -154 0
-50 -109 43 -154 0
-50 -110 44 -154 0
-50 -112 45 -154 0
-50 -113 46 -154 0
-50 -114 47 -154 0
-50 -115 48 -154 0
-50 -116 49 -154 0
-50 -117 51 -154 0
-50 -118 52 -154 0
-50 -119 53 -154 0
-51 -120 43 -154 0
-51 -121 44 -154 0
-51 -123 45 -154 0
-51 -124 46 -154 0
-51 -125 47 -154 0
-51 -126 48 -154 0
-51 -127 49 -154 0
-51 -128 50 -154 0
-51 -129 52 -154 0
-51 -130 53 -154 0
-52 -131 43 -154 0
-52 -132 44 -154 0
-52 -134 45 -154 0
-52 -135 46 -154 0
-52 -136 47 -154 0
-52 -137 48 -154 0
-52 -138 49 -154 0
-52 -139 50 -154 0
-52 -140 51 -154 0
-52 -141 53 -154 0
-53 -142 43 -154 0
-53 -143 44 -154 0
-53 -145 45 -154 0
-53 -146 46 -154 0
-53 -147 47 -154 0
-53 -148 48 -154 0
-53 -149 49 -154 0
-53 -150 50 -154 0
-53 -151 51 -154 0
-53 -152 52 -154 0
-54 -21 55 -154 0
-54 -22 56 -154 0
-54 -24 57 -154 0
-54 -25 58 -154 0
-54 -26 59 -154 0
-54 -27 60 -154 0
-54 -28 61 -154 0
-54 -29 62 -154 0
-54 -30 63 -154 0
-54 -31 64 -154 0
-55 -32 54 -154 0
-55 -33 56 -154 0
-55 -35 57 -154 0
-55 -36 58 -154 0
-55 -37 59 -154 0
-55 -38 60 -154 0
-55 -39 61 -154 0
-55 -40 62 -154 0
-55 -41 63 -154 0
-55 -42 64 -154 0
-56 -43 54 -154 0
-56 -44 55 -154 0
-56 -46 57 -154 0
-56 -47 58 -154 0
-56 -48 59 -154 0
-56 -49 60 -154 0
-56 -50 61 -154 0
-56 -51 62 -154 0
-56 -52 63 -154 0
-56 -53 64 -154 0
-57 -65 54 -154 0
-57 -66 55 -154 0
-57 -67 56 -154 0
-57 -69 58 -154 0
-57 -70 59 -154 0
-57 -71 60 -154 0
-57 -72 61 -154 0
-57 -73 62 -154 0
-57 -74 63 -154 0
-57 -75 64 -154 0
-58 -76 54 -154 0
-58 -77 55 -154 0
-58 -78 56 -154 0
-58 -80 57 -154 0
-58 -81 59 -154 0
-58 -82 60 -154 0
-58 -83 61 -154 0
-58 -84 62 -154 0
-58 -85 63 -154 0
-58 -86 64 -154 0
-59 -87 54 -154 0
-59 -88 55 -154 0
-59 -89 56 -154 0
-59 -91 57 -154 0
-59 -92 58 -154 0
-59 -93 60 -154 0
-59 -94 61 -154 0
-59 -95 62 -154 0
-59 -96 63 -154 0
-59 -97 64 -154 0
-60 -98 54 -154 0
-60 -99 55 -154 0
-60 -100 56 -154 0
-60 -102 57 -154 0
-60 -103 58 -154 0
-60 -104 59 -154 0
-60 -105 61 -154 0
-60 -106 62 -154 0
-60 -107 63 -154 0
-60 -108 64 -154 0
-61 -109 54 -154 0
-61 -110 55 -154 0
-61 -111 56 -154 0
-61 -113 57 -154 0
-61 -114 58 -154 0
-61 -115 59 -154 0
-61 -116 60 -154 0
-61 -117 62 -154 0
-61 -118 63 -154 0
-61 -119 64 -154 0
-62 -120 54 -154 0
-62 -121 55 -154 0
-62 -122 56 -154 0
-62 -124 57 -154 0
-62 -125 58 -154 0
-62 -126 59 -154 0
-62 -127 60 -154 0
-62 -128 61 -154 0
-62 -129 63 -154 0
-62 -130 64 -154 0
-63 -131 54 -154 0
-63 -132 55 -154 0
-63 -133 56 -154 0
-63 -135 57 -154 0
-63 -136 58 -154 0
-63 -137 59 -154 0
-63 -138 60 -154 0
-63 -139 61 -154 0
-63 -140 62 -154 0
-63 -141 64 -154 0
-64 -142 54 -154 0
-64 -143 55 -154 0
-64 -144 56 -154 0
-64 -146 57 -154 0
-64 -147 58 -154 0
-64 -148 59 -154 0
-64 -149 60 -154 0
-64 -150 61 -154 0
-64 -151 62 -154 0
-64 -152 63 -154 0
-65 -21 66 -154 0
-65 -22 67 -154 0
-65 -23 68 -154 0
-65 -25 69 -154 0
-65 -26 70 -154 0
-65 -27 71 -154 0
-65 -28 72 -154 0
-65 -29 73 -154 0
-65 -30 74 -154 0
-65 -31 75 -154 0
-66 -32 65 -154 0
-66 -33 67 -154 0
-66 -34 68 -154 0
-66 -36 69 -154 0
-66 -37 70 -154 0
-66 -38 71 -154 0
-66 -39 72 -154 0
-66 -40 73 -154 0
-66 -41 74 -154 0
-66 -42 75 -154 0
-67 -43 65 -154 0
-67 -44 66 -154 0
-67 -45 68 -154 0
-67 -47 69 -154 0
-67 -48 70 -154 0
-67 -49 71 -154 0
-67 -50 72 -154 0
-67 -51 73 -154 0
-67 -52 74 -154 0
-67 -53 75 -154 0
-68 -54 65 -154 0
-68 -55 66 -154 0
-68 -56 67 -154 0
-68 -58 69 -154 0
-68 -59 70 -154 0
-68 -60 71 -154 0
-68 -61 72 -154 0
-68 -62 73 -154 0
-68 -63 74 -154 0
-68 -64 75 -154 0
-69 -76 65 -154 0
-69 -77 66 -154 0
-69 -78 67 -154 0
-69 -79 68 -154 0
-69 -81 70 -154 0
-69 -82 71 -154 0
-69 -83 72 -154 0
-69 -84 73 -154 0
-69 -85 74 -154 0
-69 -86 75 -154 0
-70 -87 65 -154 0
-70 -88 66 -154 0
-70 -89 67 -154 0
-70 -90 68 -154 0
-70 -92 69 -154 0
-70 -93 71 -154 0
-70 -94 72 -154 0
-70 -95 73 -154 0
-70 -96 74 -154 0
-70 -97 75 -154 0
-71 -98 65 -154 0
-71 -99 66 -154 0
-71 -100 67 -154 0
-71 -101 68 -154 0
-71 -103 69 -154 0
-71 -104 70 -154 0
-71 -105 72 -154 0
-71 -106 73 -154 0
-71 -107 74 -154 0
-71 -108 75 -154 0
-72 -109 65 -154 0
-72 -110 66 -154 0
-72 -111 67 -154 0
-72 -112 68 -154 0
-72 -114 69 -154 0
-72 -115 70 -154 0
-72 -116 71 -154 0
-72 -117 73 -154 0
-72 -118 74 -154 0
-72 -119 75 -154 0
-73 -120 65 -154 0
-73 -121 66 -154 0
-73 -122 67 -154 0
-73 -123 68 -154 0
-73 -125 69 -154 0
-73 -126 70 -154 0
-73 -127 71 -154 0
-73 -128 72 -154 0
-73 -129 74 -154 0
-73 -130 75 -154 0
-74 -131 65 -154 0
-74 -132 66 -154 0
-74 -133 67 -154 0
-74 -134 68 -154 0
-74 -136 69 -154 0
-74 -137 70 -154 0
-74 -138 71 -154 0
-74 -139 72 -154 0
-74 -140 73 -154 0
-74 -141 75 -154 0
-75 -142 65 -154 0
-75 -143 66 -154 0
-75 -144 67 -154 0
-75 -145 68 -154 0
-75 -147 69 -154 0
-75 -148 70 -154 0
-75 -149 71 -154 0
-75 -150 72 -154 0
-75 -151 73 -154 0
-75 -152 74 -154 0
-76 -21 77 -154 0
-76 -22 78 -154 0
-76 -23 79 -154 0
-76 -24 80 -154 0
-76 -26 81 -154 0
-76 -27 82 -154 0
-76 -28 83 -154 0
-76 -29 84 -154 0
-76 -30 85 -154 0
-76 -31 86 -154 0
-77 -32 76 -154 0
-77 -33 78 -154 0
-77 -34 79 -154 0
-77 -35 80 -154 0
-77 -37 81 -154 0
-77 -38 82 -154 0
-77 -39 83 -154 0
-77 -40 84 -154 0
-77 -41 85 -154 0
-77 -42 86 -154 0
-78 -43 76 -154 0
-78 -44 77 -154 0
-78 -45 79 -154 0
-78 -46 80 -154 0
-78 -48 81 -154 0
-78 -49 82 -154 0
-78 -50 83 -154 0
-78 -51 84 -154 0
-78 -52 85 -154 0
-78 -53 86 -154 0
-79 -54 76 -154 0
-79 -55 77 -154 0
-79 -56 78 -154 0
-79 -57 80 -154 0
-79 -59 81 -154 0
-79 -60 82 -154 0
-79 -61 83 -154 0
-79 -62 84 -154 0
-79 -63 85 -154 0
-79 -64 86 -154 0
-80 -65 76 -154 0
-80 -66 77 -154 0
-80 -67 78 -154 0
-80 -68 79 -154 0
-80 -70 81 -154 0
-80 -71 82 -154 0
-80 -72 83 -154 0
-80 -73 84 -154 0
-80 -74 85 -154 0
-80 -75 86 -154 0
-81 -87 76 -154 0
-81 -88 77 -154 0
-81 -89 78 -154 0
-81 -90 79 -154 0
-81 -91 80 -154 0
-81 -93 82 -154 0
-81 -94 83 -154 0
-81 -95 84 -154 0
-81 -96 85 -154 0
-81 -97 86 -154 0
-82 -98 76 -154 0
-82 -99 77 -154 0
-82 -100 78 -154 0
-82 -101 79 -154 0
-82 -102 80 -154 0
-82 -104 81 -154 0
-82 -105 83 -154 0
-82 -106 84 -154 0
-82 -107 85 -154 0
-82 -108 86 -154 0
-83 -109 76 -154 0
-83 -110 77 -154 0
-83 -111 78 -154 0
-83 -112 79 -154 0
-83 -113 80 -154 0
-83 -115 81 -154 0
-83 -116 82 -154 0
-83 -117 84 -154 0
-83 -118 85 -154 0
-83 -119 86 -154 0
-84 -120 76 -154 0
-84 -121 77 -154 0
-84 -122 78 -154 0
-84 -123 79 -154 0
-84 -124 80 -154 0
-84 -126 81 -154 0
-84 -127 82 -154 0
-84 -128 83 -154 0
-84 -129 85 -154 0
-84 -130 86 -154 0
-85 -131 76 -154 0
-85 -132 77 -154 0
-85 -133 78 -154 0
-85 -134 79 -154 0
-85 -135 80 -154 0
-85 -137 81 -154 0
-85 -138 82 -154 0
-85 -139 83 -154 0
-85 -140 84 -154 0
-85 -141 86 -154 0
-86 -142 76 -154 0
-86 -143 77 -154 0
-86 -144 78 -154 0
-86 -145 79 -154 0
-86 -146 80 -154 0
-86 -148 81 -154 0
-86 -149 82 -154 0
-86 -150 83 -154 0
-86 -151 84 -154 0
-86 -152 85 -154 0
-87 -21 88 -154 0
-87 -22 89 -154 0
-87 -23 90 -154 0
-87 -24 91 -154 0
-87 -25 92 -154 0
-87 -27 93 -154 0
-87 -28 94 -154 0
-87 -29 95 -154 0
-87 -30 96 -154 0
-87 -31 97 -154 0
-88 -32 87 -154 0
-88 -33 89 -154 0
-88 -34 90 -154 0
-88 -35 91 -154 0
-88 -36 92 -154 0
-88 -38 93 -154 0
-88 -39 94 -154 0
-88 -40 95 -154 0
-88 -41 96 -154 0
-88 -42 97 -154 0
-89 -43 87 -154 0
-89 -44 88 -154 0
-89 -45 90 -154 0
-89 -46 91 -154 0
-89 -47 92 -154 0
-89 -49 93 -154 0
-89 -50 94 -154 0
-89 -51 95 -154 0
-89 -52 96 -154 0
-89 -53 97 -154 0
-90 -54 87 -154 0
-90 -55 88 -154 0
-90 -56 89 -154 0
-90 -57 91 -154 0
-90 -58 92 -154 0
-90 -60 93 -154 0
-90 -61 94 -154 0
-90 -62 95 -154 0
-90 -63 96 -154 0
-90 -64 97 -154 0
-91 -65 87 -154 0
-91 -66 88 -154 0
-91 -67 89 -154 0
-91 -68 90 -154 0
-91 -69 92 -154 0
-91 -71 93 -154 0
-91 -72 94 -154 0
-91 -73 95 -154 0
-91 -74 96 -154 0
-91 -75 97 -154 0
-92 -76 87 -154 0
-92 -77 88 -154 0
-92 -78 89 -154 0
-92 -79 90 -154 0
-92 -80 91 -154 0
-92 -82 93 -154 0
-92 -83 94 -154 0
-92 -84 95 -154 0
-92 -85 96 -154 0
-92 -86 97 -154 0
-93 -98 87 -154 0
-93 -99 88 -154 0
-93 -100 89 -154 0
-93 -101 90 -154 0
-93 -102 91 -154 0
-93 -103 92 -154 0
-93 -105 94 -154 0
-93 -106 95 -154 0
-93 -107 96 -154 0
-93 -108 97 -154 0
-94 -109 87 -154 0
-94 -110 88 -154 0
-94 -111 89 -154 0
-94 -112 90 -154 0
-94 -113 91 -154 0
-94 -114 92 -154 0
-94 -116 93 -154 0
-94 -117 95 -154 0
-94 -118 96 -154 0
-94 -119 97 -154 0
-95 -120 87 -154 0
-95 -121 88 -154 0
-95 -122 89 -154 0
-95 -123 90 -154 0
-95 -124 91 -154 0
-95 -125 92 -154 0
-95 -127 93 -154 0
-95 -128 94 -154 0
-95 -129 96 -154 0
-95 -130 97 -154 0
-96 -131 87 -154 0
-96 -132 88 -154 0
-96 -133 89 -154 0
-96 -134 90 -154 0
-96 -135 91 -154 0
-96 -136 92 -154 0
-96 -138 93 -154 0
-96 -139 94 -154 0
-96 -140 95 -154 0
-96 -141 97 -154 0
-97 -142 87 -154 0
-97 -143 88 -154 0
-97 -144 89 -154 0
-97 -145 90 -154 0
-97 -146 91 -154 0
-97 -147 92 -154 0
-97 -149 93 -154 0
-97 -150 94 -154 0
-97 -151 95 -154 0
-97 -152 96 -154 0
-98 -21 99 -154 0
-98 -22 100 -154 0
-98 -23 101 -154 0
-98 -24 102 -154 0
-98 -25 103 -154 0
-98 -26 104 -154 0
-98 -28 105 -154 0
-98 -29 106 -154 0
-98 -30 107 -154 0
-98 -31 108 -154 0
-99 -32 98 -154 0
-99 -33 100 -154 0
-99 -34 101 -154 0
-99 -35 102 -154 0
-99 -36 103 -154 0
-99 -37 104 -154 0
-99 -39 105 -154 0
-99 -40 106 -154 0
-99 -41 107 -154 0
-99 -42 108 -154 0
-100 -43 98 -154 0
-100 -44 99 -154 0
-100 -45 101 -154 0
-100 -46 102 -154 0
-100 -47 103 -154 0
-100 -48 104 -154 0
-100 -50 105 -154 0
-100 -51 106 -154 0
-100 -52 107 -154 0
-100 -53 108 -154 0
-101 -54 98 -154 0
-101 -55 99 -154 0
-101 -56 100 -154 0
-101 -57 102 -154 0
-101 -58 103 -154 0
-101 -59 104 -154 0
-101 -61 105 -154 0
-101 -62 106 -154 0
-101 -63 107 -154 0
-101 -64 108 -154 0
-102 -65 98 -154 0
-102 -66 99 -154 0
-102 -67 100 -154 0
-102 -68 101 -154 0
-102 -69 103 -154 0
-102 -70 104 -154 0
-102 -72 105 -154 0
-102 -73 106 -154 0
-102 -74 107 -154 0
-102 -75 108 -154 0
-103 -76 98 -154 0
-103 -77 99 -154 0
-103 -78 100 -154 0
-103 -79 101 -154 0
-103 -80 102 -154 0
-103 -81 104 -154 0
-103 -83 105 -154 0
-103 -84 106 -154 0
-103 -85 107 -154 0
-103 -86 108 -154 0
-104 -87 98 -154 0
-104 -88 99 -154 0
-104 -89 100 -154 0
-104 -90 101 -154 0
-104 -91 102 -154 0
-104 -92 103 -154 0
-104 -94 105 -154 0
-104 -95 106 -154 0
-104 -96 107 -154 0
-104 -97 108 -154 0
-105 -109 98 -154 0
-105 -110 99 -154 0
-105 -111 100 -154 0
-105 -112 101 -154 0
-105 -113 102 -154 0
-105 -114 103 -154 0
-105 -115 104 -154 0
-105 -117 106 -154 0
-105 -118 107 -154 0
-105 -119 108 -154 0
-106 -120 98 -154 0
-106 -121 99 -154 0
-106 -122 100 -154 0
-106 -123 101 -154 0
-106 -124 102 -154 0
-106 -125 103 -154 0
-106 -126 104 -154 0
-106 -128 105 -154 0
-106 -129 107 -154 0
-106 -130 108 -154 0
-107 -131 98 -154 0
-107 -132 99 -154 0
-107 -133 100 -154 0
-107 -134 101 -154 0
-107 -135 102 -154 0
-107 -136 103 -154 0
-107 -137 104 -154 0
-107 -139 105 -154 0
-107 -140 106 -154 0
-107 -141 108 -154 0
-108 -142 98 -154 0
-108 -143 99 -154 0
-108 -144 100 -154 0
-108 -145 101 -154 0
-108 -146 102 -154 0
-108 -147 103 -154 0
-108 -148 104 -154 0
-108 -150 105 -154 0
-108 -151 106 -154 0
-108 -152 107 -154 0
-109 -21 110 -154 0
-109 -22 111 -154 0
-109 -23 112 -154 0
-109 -24 113 -154 0
-109 -25 114 -154 0
-109 -26 115 -154 0
-109 -27 116 -154 0
-109 -29 117 -154 0
-109 -30 118 -154 0
-109 -31 119 -154 0
-110 -32 109 -154 0
-110 -33 111 -154 0
-110 -34 112 -154 0
-110 -35 113 -154 0
-110 -36 114 -154 0
-110 -37 115 -154 0
-110 -38 116 -154 0
-110 -40 117 -154 0
-110 -41 118 -154 0
-110 -42 119 -154 0
-111 -43 109 -154 0
-111 -44 110 -154 0
-111 -45 112 -154 0
-111 -46 113 -154 0
-111 -47 114 -154 0
-111 -48 115 -154 0
-111 -49 116 -154 0
-111 -51 117 -154 0
-111 -52 118 -154 0
-111 -53 119 -154 0
-112 -54 109 -154 0
-112 -55 110 -154 0
-112 -56 111 -154 0
-112 -57 113 -154 0
-112 -58 114 -154 0
-112 -59 115 -154 0
-112 -60 116 -154 0
-112 -62 117 -154 0
-112 -63 118 -154 0
-112 -64 119 -154 0
-113 -65 109 -154 0
-113 -66 110 -154 0
-113 -67 111 -154 0
-113 -68 112 -154 0
-113 -69 114 -154 0
-113 -70 115 -154 0
-113 -71 116 -154 0
-113 -73 117 -154 0
-113 -74 118 -154 0
-113 -75 119 -154 0
-114 -76 109 -154 0
-114 -77 110 -154 0
-114 -78 111 -154 0
-114 -79 112 -154 0
-114 -80 113 -154 0
-114 -81 115 -154 0
-114 -82 116 -154 0
-114 -84 117 -154 0
-114 -85 118 -154 0
-114 -86 119 -154 0
-115 -87 109 -154 0
-115 -88 110 -154 0
-115 -89 111 -154 0
-115 -90 112 -154 0
-115 -91 113 -154 0
-115 -92 114 -154 0
-115 -93 116 -154 0
-115 -95 117 -154 0
-115 -96 118 -154 0
-115 -97 119 -154 0
-116 -98 109 -154 0
-116 -99 110 -154 0
-116 -100 111 -154 0
-116 -101 112 -154 0
-116 -102 113 -154 0
-116 -103 114 -154 0
-116 -104 115 -154 0
-116 -106 117 -154 0
-116 -107 118 -154 0
-116 -108 119 -154 0
-117 -120 109 -154 0
-117 -121 110 -154 0
-117 -122 111 -154 0
-117 -123 112 -154 0
-117 -124 113 -154 0
-117 -125 114 -154 0
-117 -126 115 -154 0
-117 -127 116 -154 0
-117 -129 118 -154 0
-117 -130 119 -154 0
-118 -131 109 -154 0
-118 -132 110 -154 0
-118 -133 111 -154 0
-118 -134 112 -154 0
-118 -135 113 -154 0
-118 -136 114 -154 0
-118 -137 115 -154 0
-118 -138 116 -154 0
-118 -140 117 -154 0
-118 -141 119 -154 0
-119 -142 109 -154 0
-119 -143 110 -154 0
-119 -144 111 -154 0
-119 -145 112 -154 0
-119 -146 113 -154 0
-119 -147 114 -154 0
-119 -148 115 -154 0
-119 -149 116 -154 0
-119 -151 117 -154 0
-119 -152 118 -154 0
-120 -21 121 -154 0
-120 -22 122 -154 0
-120 -23 123 -154 0
-120 -24 124 -154 0
-120 -25 125 -154 0
-120 -26 126 -154 0
-120 -27 127 -154 0
-120 -28 128 -154 0
-120 -30 129 -154 0
-120 -31 130 -154 0
-121 -32 120 -154 0
-121 -33 122 -154 0
-121 -34 123 -154 0
-121 -35 124 -154 0
-121 -36 125 -154 0
-121 -37 126 -154 0
-121 -38 127 -154 0
-121 -39 128 -154 0
-121 -41 129 -154 0
-121 -42 130 -154 0
-122 -43 120 -154 0
-122 -44 121 -154 0
-122 -45 123 -154 0
-122 -46 124 -154 0
-122 -47 125 -154 0
-122 -48 126 -154 0
-122 -49 127 -154 0
-122 -50 128 -154 0
-122 -52 129 -154 0
-122 -53 130 -154 0
-123 -54 120 -154 0
-123 -55 121 -154 0
-123 -56 122 -154 0
-123 -57 124 -154 0
-123 -58 125 -154 0
-123 -59 126 -154 0
-123 -60 127 -154 0
-123 -61 128 -154 0
-123 -63 129 -154 0
-123 -64 130 -154 0
-124 -65 120 -154 0
-124 -66 121 -154 0
-124 -67 122 -154 0
-124 -68 123 -154 0
-124 -69 125 -154 0
-124 -70 126 -154 0
-124 -71 127 -154 0
-124 -72 128 -154 0
-124 -74 129 -154 0
-124 -75 130 -154 0
-125 -76 120 -154 0
-125 -77 121 -154 0
-125 -78 122 -154 0
-125 -79 123 -154 0
-125 -80 124 -154 0
-125 -81 126 -154 0
-125 -82 127 -154 0
-125 -83 128 -154 0
-125 -85 129 -154 0
-125 -86 130 -154 0
-126 -87 120 -154 0
-126 -88 121 -154 0
-126 -89 122 -154 0
-126 -90 123 -154 0
-126 -91 124 -154 0
-126 -92 125 -154 0
-126 -93 127 -154 0
-126 -94 128 -154 0
-126 -96 129 -154 0
-126 -97 130 -154 0
-127 -98 120 -154 0
-127 -99 121 -154 0
-127 -100 122 -154 0
-127 -101 123 -154 0
-127 -102 124 -154 0
-127 -103 125 -154 0
-127 -104 126 -154 0
-127 -105 128 -154 0
-127 -107 129 -154 0
-127 -108 130 -154 0
-128 -109 120 -154 0
-128 -110 121 -154 0
-128 -111 122 -154 0
-128 -112 123 -154 0
-128 -113 124 -154 0
-128 -114 125 -154 0
-128 -115 126 -154 0
-128 -116 127 -154 0
-128 -118 129 -154 0
-128 -119 130 -154 0
-129 -131 120 -154 0
-129 -132 121 -154 0
-129 -133 122 -154 0
-129 -134 123 -154 0
-129 -135 124 -154 0
-129 -136 125 -154 0
-129 -137 126 -154 0
-129 -138 127 -154 0
-129 -139 128 -154 0
-129 -141 130 -154 0
-130 -142 120 -154 0
-130 -143 121 -154 0
-130 -144 122 -154 0
-130 -145 123 -154 0
-130 -146 124 -154 0
-130 -147 125 -154 0
-130 -148 126 -154 0
-130 -149 127 -154 0
-130 -150 128 -154 0
-130 -152 129 -154 0
-131 -21 132 -154 0
-131 -22 133 -154 0
-131 -23 134 -154 0
-131 -24 135 -154 0
-131 -25 136 -154 0
-131 -26 137 -154 0
-131 -27 138 -154 0
-131 -28 139 -154 0
-131 -29 140 -154 0
-131 -31 141 -154 0
-132 -32 131 -154 0
-132 -33 133 -154 0
-132 -34 134 -154 0
-132 -35 135 -154 0
-132 -36 136 -154 0
-132 -37 137 -154 0
-132 -38 138 -154 0
-132 -39 139 -154 0
-132 -40 140 -154 0
-132 -42 141 -154 0
-133 -43 131 -154 0
-133 -44 132 -154 0
-133 -45 134 -154 0
-133 -46 135 -154 0
-133 -47 136 -154 0
-133 -48 137 -154 0
-133 -49 138 -154 0
-133 -50 139 -154 0
-133 -51 140 -154 0
-133 -53 141 -154 0
-134 -54 131 -154 0
-134 -55 132 -154 0
-134 -56 133 -154 0
-134 -57 135 -154 0
-134 -58 136 -154 0
-134 -59 137 -154 0
-134 -60 138 -154 0
-134 -61 139 -154 0
-134 -62 140 -154 0
-134 -64 141 -154 0
-135 -65 131 -154 0
-135 -66 132 -154 0
-135 -67 133 -154 0
-135 -68 134 -154 0
-135 -69 136 -154 0
-135 -70 137 -154 0
-135 -71 138 -154 0
-135 -72 139 -154 0
-135 -73 140 -154 0
-135 -75 141 -154 0
-136 -76 131 -154 0
-136 -77 132 -154 0
-136 -78 133 -154 0
-136 -79 134 -154 0
-136 -80 135 -154 0
-136 -81 137 -154 0
-136 -82 138 -154 0
-136 -83 139 -154 0
-136 -84 140 -154 0
-136 -86 141 -154 0
-137 -87 131 -154 0
-137 -88 132 -154 0
-137 -89 133 -154 0
-137 -90 134 -154 0
-137 -91 135 -154 0
-137 -92 136 -154 0
-137 -93 138 -154 0
-137 -94 139 -154 0
-137 -95 140 -154 0
-137 -97 141 -154 0
-138 -98 131 -154 0
-138 -99 132 -154 0
-138 -100 133 -154 0
-138 -101 134 -154 0
-138 -102 135 -154 0
-138 -103 136 -154 0
-138 -104 137 -154 0
-138 -105 139 -154 0
-138 -106 140 -154 0
-138 -108 141 -154 0
-139 -109 131 -154 0
-139 -110 132 -154 0
-139 -111 133 -154 0
-139 -112 134 -154 0
-139 -113 135 -154 0
-139 -114 136 -154 0
-139 -115 137 -154 0
-139 -116 138 -154 0
-139 -117 140 -154 0
-139 -119 141 -154 0
-140 -120 131 -154 0
-140 -121 132 -154 0
-140 -122 133 -154 0
-140 -123 134 -154 0
-140 -124 135 -154 0
-140 -125 136 -154 0
-140 -126 137 -154 0
-140 -127 138 -154 0
-140 -128 139 -154 0
-140 -130 141 -154 0
-141 -142 131 -154 0
-141 -143 132 -154 0
-141 -144 133 -154 0
-141 -145 134 -154 0
-141 -146 135 -154 0
-141 -147 136 -154 0
-141 -148 137 -154 0
-141 -149 138 -154 0
-141 -150 139 -154 0
-141 -151 140 -154 0
-142 -21 143 -154 0
-142 -22 144 -154 0
-142 -23 145 -154 0
-142 -24 146 -154 0
-142 -25 147 -154 0
-142 -26 148 -154 0
-142 -27 149 -154 0
-142 -28 150 -154 0
-142 -29 151 -154 0
-142 -30 152 -154 0
-143 -32 142 -154 0
-143 -33 144 -154 0
-143 -34 145 -154 0
-143 -35 146 -154 0
-143 -36 147 -154 0
-143 -37 148 -154 0
-143 -38 149 -154 0
-143 -39 150 -154 0
-143 -40 151 -154 0
-143 -41 152 -154 0
-144 -43 142 -154 0
-144 -44 143 -154 0
-144 -45 145 -154 0
-144 -46 146 -154 0
-144 -47 147 -154 0
-144 -48 148 -154 0
-144 -49 149 -154 0
-144 -50 150 -154 0
-144 -51 151 -154 0
-144 -52 152 -154 0
-145 -54 142 -154 0
-145 -55 143 -154 0
-145 -56 144 -154 0
-145 -57 146 -154 0
-145 -58 147 -154 0
-145 -59 148 -154 0
-145 -60 149 -154 0
-145 -61 150 -154 0
-145 -62 151 -154 0
-145 -63 152 -154 0
-146 -65 142 -154 0
-146 -66 143 -154 0
-146 -67 144 -154 0
-146 -68 145 -154 0
-146 -69 147 -154 0
-146 -70 148 -154 0
-146 -71 149 -154 0
-146 -72 150 -154 0
-146 -73 151 -154 0
-146 -74 152 -154 0
-147 -76 142 -154 0
-147 -77 143 -154 0
-147 -78 144 -154 0
-147 -79 145 -154 0
-147 -80 146 -154 0
-147 -81 148 -154 0
-147 -82 149 -154 0
-147 -83 150 -154 0
-147 -84 151 -154 0
-147 -85 152 -154 0
-148 -87 142 -154 0
-148 -88 143 -154 0
-148 -89 144 -154 0
-148 -90 145 -154 0
-148 -91 146 -154 0
-148 -92 147 -154 0
-148 -93 149 -154 0
-148 -94 150 -154 0
-148 -95 151 -154 0
-148 -96 152 -154 0
-149 -98 142 -154 0
-149 -99 143 -154 0
-149 -100 144 -154 0
-149 -101 145 -154 0
-149 -102 146 -154 0
-149 -103 147 -154 0
-149 -104 148 -154 0
-149 -105 150 -154 0
-149 -106 151 -154 0
-149 -107 152 -154 0
-150 -109 142 -154 0
-150 -110 143 -154 0
-150 -111 144 -154 0
-150 -112 145 -154 0
-150 -113 146 -154 0
-150 -114 147 -154 0
-150 -115 148 -154 0
-150 -116 149 -154 0
-150 -117 151 -154 0
-150 -118 152 -154 0
-151 -120 142 -154 0
-151 -121 143 -154 0
-151 -122 144 -154 0
-151 -123 145 -154 0
-151 -124 146 -154 0
-151 -125 147 -154 0
-151 -126 148 -154 0
-151 -127 149 -154 0
-151 -128 150 -154 0
-151 -129 152 -154 0
-152 -131 142 -154 0
-152 -132 143 -154 0
-152 -133 144 -154 0
-152 -134 145 -154 0
-152 -135 146 -154 0
-152 -136 147 -154 0
-152 -137 148 -154 0
-152 -138 149 -154 0
-152 -139 150 -154 0
-152 -140 151 -154 0
32 43 54 65 76 87 98 109 120 131 142 -154 0
21 44 55 66 77 88 99 110 121 132 143 -154 0
22 33 56 67 78 89 100 111 122 133 144 -154 0
23 34 45 68 79 90 101 112 123 134 145 -154 0
24 35 46 57 80 91 102 113 124 135 146 -154 0
25 36 47 58 69 92 103 114 125 136 147 -154 0
26 37 48 59 70 81 104 115 126 137 148 -154 0
27 38 49 60 71 82 93 116 127 138 149 -154 0
28 39 50 61 72 83 94 105 128 139 150 -154 0
29 40 51 62 73 84 95 106 117 140 151 -154 0
30 41 52 63 74 85 96 107 118 129 152 -154 0
31 42 53 64 75 86 97 108 119 130 141 -154 0
153 154 0
